
 102   30
  10   10   10   10   10   10   10   10   10   10   10   10   10   10   10   10   10   10   10   10   10   10   10   10   10   10   10   10   10   10

   0   0   0   0   0   0   0   0   0   0   0   0   0   0   0   0   0   0   0   0   0   0   0   0   0   0   0   0   0   0   0  26 2 3 4 5 6 7 8 9 10 11 12 13 15 16 17 18 19 21 22 23 24 25 27 34 40 48 
   2   0   0   0   0   6   0   0   1   0   0   0   0   0   0   0   0   0   0   6   0   0   0   0   0   2   0   0   2   0   0  18 101 67 62 59 57 53 52 50 49 44 42 41 37 36 30 28 26 14 
   7   3   0   0   1   0   0   0   0   0   0   0   1   0   0   3   0   0   0   3   0   0   1   2   0   0   0   0   0   0   0  18 77 76 75 72 68 67 65 62 59 58 57 53 51 46 45 35 33 31 
   6   0   0   0   0   0   0   0   7   0   0   0   0   0   0   0   0   0   0   0   1   0   0   5   0   5   0   0   0   0   0  16 101 77 75 68 66 62 61 59 57 56 54 53 50 43 30 14 
   1   0   0   0   4   0   0   0   0   0   0   0   4   0   0   0   0   0   0   0   0   0   0   0   0  10   0   0   0   0   1  13 101 67 66 62 61 58 56 55 54 44 37 30 14 
   8   3   1   0   0   0   0   0   0   0   0   0   0   0   0  10   0   0   0   0   9   0   0   7   2   6   0   0   0   0   0  20 101 96 77 73 68 67 66 64 62 61 58 55 53 52 51 50 46 43 41 32 
   5   0   0   0   0   0   4   0   0   0   1   0   0   0   0   0   0   0   1   0   0   0   0   0   0   0   0   0   0   1   0  11 93 76 65 63 57 56 55 45 44 37 20 
   2   0   0   0   0   7   0   0   0   0   0   0   0   0   0   0   0   0   0   0   9   0   0   0   0   0   2   0   2   0   0  19 101 100 97 94 91 76 74 73 67 66 65 64 62 60 58 56 50 49 41 
   8   0   0   0   0   0   5   0   0   0   0   0   0   1   0   4   0   0   0   0   0   0   0   0   0   8   7   0   0   0   0  15 97 96 76 73 72 71 66 63 59 55 54 53 51 46 45 
   2   0   0   0   0   0   0   0   0   0   0   0   0   0   0   0   0   0   0   0   6   0   5   0   0   5   0   0   0   0   0  15 99 76 75 68 67 64 63 60 58 56 51 47 46 41 36 
  10   0   0   0   3   0   3   2   0   0   0   0   0   0   0   0   0   0   0   0   5   0   0   0   0   0   0   0   0   0   0   9 75 74 61 52 44 41 39 38 30 
   4   6   0   2   0   0   0   0   5   0   0   0   0   0   0   0   0   0   0   0   0   0   0   0   0   0   0   0   5   6   0  12 94 75 71 67 66 65 62 60 58 54 41 29 
   4   0   0   0   1   0   0   0   4   0   0   0   0   0   0   0   0   0   0   0   0   0   0   0   0   0   0   0   0   7   0  21 100 97 95 94 93 91 88 85 77 75 74 72 70 67 64 63 62 61 60 57 54 
   5   0   0   0   0   0   6   0   7   0   0   0   0   9   1   0   0   0   0   0   0   0   0   0   0   0   0   0   0   0   0  17 99 96 94 93 92 89 88 76 74 73 71 65 64 63 60 51 38 
  10   0   0   0   9   0   0   0   0   0   0   0   0   0   0   0   0   0   0   0   0   1   0   0   0   0   0   0   0   0   0  16 100 99 96 94 74 72 71 67 66 65 63 60 56 51 45 43 
   8   0   0   0   0   0   4   5   0   0   0   0   0   0   0   0   0   0   0   0   0   0   0   0   4   0   0   0   9   0   0  15 94 93 91 77 75 74 65 64 60 58 56 54 44 43 41 
   6   0   0   5   0   0   0   0   0   0   0   0   0   0   0   0   1   0   0   0   0   0   0   9   0   0   0   0  10   0   0  14 92 88 77 76 74 73 68 64 63 62 57 54 53 51 
   8   0   0   0   0   1   0   0   9   0   0   0   3   0   4   0   0   1   0   6   0   0   0   0   0   0   0   0   0   0   0  11 99 94 93 77 76 65 63 60 56 38 36 
   9   0   0   0   0   0   0   6   0   0   0   2   0   0   0   0   0   0   0   0   0   0   0   0   0   0   0   1   0   0   0   8 92 74 60 51 50 49 38 36 
   5   0   0   0   0   0   0   7   0   0   0   0   0   0   0   0   0   0   0   0   9   0   0   0   0   0   0   0   0   0   0  12 95 94 92 75 74 67 66 61 60 51 50 38 
  10   0   8   0   0   0   6   0   0   0   0   8   0   0   0   0   0   0   9   3   0   0   0   0   0   0   0   0   0   0   0  12 97 76 75 72 66 65 64 61 57 56 55 36 
   3   0   0   0   0   0   0   0   0   0   0   0   0   8   6   0   0   0   0   4   0   0   8   0   0   0   0   0   0   0   0  23 100 99 98 97 96 95 93 92 89 88 86 83 82 77 73 72 71 70 65 64 62 56 51 
   3   0   0   0   0   0   0   0   0   0   0   0   0   0   0   0   0   0   0   0   0   0   0   0   0   3   0   0   0   8   0  13 101 98 96 92 88 75 65 64 63 56 54 52 38 
   5   0   0   0   7   0   4   0   0   0   0   6   0   0   0   0   8   0   0   8   0   0   0   3   0   0   0   0   0   0   0   7 100 97 94 73 56 50 30 
  10   8   0   6   0   0   0   0   0   0   0   7   7   0   0   0   0   0   7   0   0   0   0   0   0   0   0   0   8   0   0  17 101 99 97 95 93 92 88 75 74 73 72 71 70 63 62 60 51 
   7   0   0   0   0   0   0   0   8   0   0  10   0   0   0   0   0   0   0   0   0   0   0   0   0   0   0   0   0   0   0  15 96 94 93 88 83 73 72 71 70 66 63 60 56 55 51 
   5   4   0   0   0   7   0   0   0   0   0   0   0   0   9   0   4   0   0   0   0   0   0   0   0   0   0   5   0   0   0  13 101 95 93 88 72 71 68 65 64 61 59 54 53 
   4   0   5   6   0   0   0   0   0   0   0   0   0   0   0   0   6   0   0   0   0   8   0   6   0   0   0   0   0   0   0  14 98 97 96 95 92 88 82 77 75 73 64 56 54 51 
   8   0   0   0   0   5   0   0   0   0   0   0   0   0   0   0   0   6   0   0   0   0  10   0   0   0   0  10   0   0   0  20 100 99 98 97 96 93 92 91 90 89 88 87 86 85 83 82 78 69 63 61 
   3   0   0   0   0   0   0   0   0   0   0   0   0   0   0   0   0   0   0   0   0   0   0   0   0   0   3   0   0   0   0  13 98 96 95 93 89 86 83 82 72 71 70 64 51 
   2   0   0   0   0   7   0   0   0   3   0   0   0   0   4   0   0   0   0   0   0   0   0   0   0   0   0   0   0   0   0  14 97 96 91 90 88 87 85 83 82 71 70 63 61 54 
   1   0   0   0   0   0  10   0   0   0   0   0   0   0   0   0   0   0   0   0   0   0   0   0   0   0   0   0   0   0   0  15 99 95 94 92 91 90 89 88 85 83 81 80 78 63 60 
   1   0   0   0   0   6   0   0   0   0   0   0   0   0   0   0   0   0   0   0   0   0   0   0   0   0   0   0   0   6   0  13 100 99 98 97 89 88 85 82 74 71 69 63 56 
   9   0   0   0   0   0   0   0   0   0   0   0   0   0   0   7   0   0   0  10   0   0   0   2   0   6   4   0   0  10   0  13 100 99 98 97 95 87 85 84 83 82 70 66 57 
   9   0   0   0   0   0   0   0   0   0   0   0   0   0   0   0   0   0   0   0   0   7   0   0   0   0   3   0   0   0   0  15 99 95 93 88 87 86 85 84 82 80 79 74 73 70 66 
   5   0   0   0   0   0   0   9   0   0   0   0   0   0   0   0   0   0   0   0   0   0   0   8   0   0   0   0   0   0   0  16 100 96 95 91 90 89 88 87 86 85 83 82 81 73 71 70 
   5   0   0   0   0   0   0   0   0   0   0   0   0   0   0   0   8   0   0   0   0   0   0   0   0   0   0   0   0   0   0  14 100 99 94 91 90 88 86 85 82 81 75 71 70 69 
   2   0   0   0   0   0   0   0   0   0   0   5   5   0   0   0   0   7   2   0   0   0   0   0   0   0   0   0   0   0   0  13 100 97 91 90 87 85 84 83 82 79 72 70 69 
   7   0   0   8   0   0   0   0   0   0  10   0  10   9   0   0   0   0   0   0   0   0   0   0   0   3   0   0   0   0   6  13 99 92 91 90 88 87 86 82 81 80 70 65 63 
   7   8   0   0   0   0   0   0   0   1   0   4   0   0  10   0   0   0   0   0   0   0   0   9   0   9   0   0   0   0   0  13 98 94 91 88 87 86 84 82 80 79 78 75 72 
   5   0   0   0   0   5   0   8   0   0   7   0   0   0   0   0   0   0   0   3   0   0   0   0   0   0   0   0   0   0   5  12 98 89 88 87 86 85 83 82 80 79 72 70 
  10   0   0   0   0   0   0   0   0   0   0   0   0   0   0   0   0   0   5   0   9   0   0   0   0  10   0   0   0   7   7  10 97 94 90 87 85 83 82 70 69 61 
   4   0   0   0   0   0   7   0   0   0   0   5   0   0   0   0   6   0   5   0   3   0   6   0   0   0   0   0   0   0   0  11 98 90 87 85 84 83 82 81 79 70 69 
   8   0   5   0   0   0   0   3   0   0   0   5   0   0   0   0   0   0   0   8   0   0   0   0   0   6   0   0   0   0   4  10 100 98 88 87 84 82 80 73 72 71 
   2   0   0   0   7   0   7   0   0   0   0   9   0   0   0   0   0   0   0   0   0   0   0   0   0   0   0   6   0   0   6   8 92 91 88 84 82 70 64 61 
  10   0   0   0   0   0   0   0   0   0   0   9   0   0   0   0   0   0   0   0   0   0   0   9   0   0   0   0   0   0   0  10 94 93 91 87 85 82 81 79 78 74 
   7   0   3   0   0   5   0   0   0   0   0   0   0   0   0   0   0   0   0   0   0   0  10   0   0   5   0   0   0   0   0   9 97 96 91 89 86 84 81 70 69 
   3   0   0   0   0   0   0   0   0   0   0   4   0   0   0   0   0   0   8   0   0   0   0   0   0   0   0   0   0   0   0   9 100 89 88 86 82 79 78 74 69 
   3   0   6   0   0   0   0   0   0  10   0   0   0   0   0   0   0   0   0   0   0   0   0   0   0   0   0   0   0   0   7   7 96 90 82 78 69 63 61 
   1   0   0   0   0   0   0   0   0   0   0   0   0   0   0  10   0   0   0   0   5   0   0   0   0   0   0   0   0   0   0   8 99 88 84 83 82 81 78 71 
   9   7   0   0   0   0   0   0   0   0   0   0   0   0   0   0   0   0   0   0   0   0   0   0   0   0   7   7   0   0   0   7 91 87 85 84 79 78 69 
   5   0   5   0   0   0   0   0   0   0   0   0   0   0   0   3   0   0   4   0   0   0   5   0   0   0   0   0   0   0   0   6 100 87 85 78 72 71 
   1   0   0   0   0   0   0   0   0   0   0   0   0   0   0   0   0   5   0   0   0   0   0   4   0   0   0   0   0   0   0   4 89 85 80 60 
   2   0   0   8   0   0   0   0   0   0   0   0   0   5   0   0   0   0   0   0   0   0   0   0   0   0   7   0   0   0   0   6 99 89 86 81 79 78 
   1   0   0   0   0   6   5   6   0   0   0   0   8   0   0   0   0   0   0   7   0   0   0   0   0   0   0   0   0   0   0   6 99 98 91 89 80 78 
   7   0   0   0   0   0   0   6   0   0   0   0   0   0   0   0   0   0   0   0   0   0   8   0   0   5   0   0   0   0   0   5 90 84 81 80 78 
   4   0   0   0   0   0   0   0   0   0   0   7   0   0   0   0   0   0   0   0   0   0   0   0   0   0   0   0   0   0   0   4 96 80 78 71 
   3   0   5   0   8   0   0   0   0   0   0   0   8   0   0   0   0   0   0   0   0   0   0   0   0   0   0   0   0   0   5   4 87 84 78 69 
  10   0   6   0   8   0   0   0   0   0   0   0   0   0   3   0   0   0   0   0   0   0   0   0   0   0   0   0   0   8   0   4 100 86 83 69 
   3   0  10   8   0   0   0   0   0  10   0   0   0   0   0   0   0   9   0   0   0   0   0   0   0   0   0   6   0   0   0   3 98 86 82 
  10   0   0   0   0   0   0   0   8   0   0   0   0   0   0   0   5   0   0   5   0   0   0  10   0   0   0   0   0   0   0   3 81 80 79 
   3   0   0   0   0   8   0   6   4   0   4   0   0   0   7   0   0   0   0   0   0   0   0   0   0   0   0   0   0   0   0   2 78 69 
   3   0   6   0   0   0   0   0   3   0   0   0   0   6   0   0   0   0   0   0   0   0   0   0   0   0   0   0  10   0   8   2 84 79 
   3   0   0   6   6  10   0   5   0   0   0   0   0   0   0   0   8   0   0   0   0   0   0   0   0   0   0   0   0   5   0   2 90 81 
   3   0   0   0   0   0   0   0   0   0   0   0   0   0   0   0   0   8   0   0   0   0   0   0   0   0   0   0   5   0   0   2 79 78 
   3   0   0   0   0   0   0   0   0   0   2   0   0   0   0   0   0   0   0   0   0   0   0   8   0   0   0   0   0   0   0   2 89 81 
   8   0   0   0   0   0   0   0   0   0   7   0   0   0   0   0   0   0   0   0   0   6   0   0   0   0   0   0   0   0   0   2 80 78 
   1   0   0   0   4   0   0   0   0   0   0   0   0   0   6   0   0   0   0   0   0   0   0   0   0   8   0   0   0   4  10   2 97 79 
   7   6   0   0   0   3   0   0   0   0   7   0   0   0   0   0   0   0   0   0   0   0   0   8   0   5   0   0   0   0   0   1 80 
   6   0   0   0   7   0   6   0   0   0   0   0   0   0   0   0   0   0   0  10   0   0   0   0   0   0   8   0   0   0   0   1 78 
   2   0   0   0   0   0   0   0   0   0   0   0   0   0   0   0   0   6   3   0   7   0   0   0   0   0   0   0   0   0   0   1 79 
   7   0   0   0   0   6   0   0   0   0   0   0   0   0   0   5   0   0   0   0   0   0   0   0   0   0   4   0   0   0   0   1 81 
   8   0   0   0   8   0   0   0   0   0   0   0   0   3   0   0   0   0   0   0   6   0   0   0   0   0   0   0   0   0   0   1 78 
   3   0   0   0   0   0   0   4   8   0   0   4   0   0   0   0   0   0   0   0   6   0   0   0   7   0   0   0   0   0   0   1 83 
   7   0   0   0   0   0   0   8   0   0   0   0   0   6   0   0   0   0   0   0   0   0   0   0   0   0   0   0   0   0   0   1 83 
   4   0   9   0   0   0   0  10   0   0   0   0   0   8   0   0   0   0   9   0   0   7   0   0   0   0   0   0   0   0   0   1 95 
   9   8   0   0   0   0   4   0   0   0   0   3   0   0   0   0   0   0   0   0   0   0   3   0   0   0   0   0   0   0   0   1 79 
   7   0   0   4   0   0   0   0   0   0   0   0   0   0   0   0   0   0   0   0   0   0   6   0   0   0   8   8   6   6   0   1 102
   2   0   0   0   0   0   0   0   0   0   0   0   6   0   0   0   0   0   0   0   0   6   0   0   7   0   0   0   5   0   0   1 102
   6   0   9   0   0   0   6   0   0   0   0   0   0   0   0   0   0   0   0   0   0   0   0   0   0   0   0   0   0   4   6   1 102
  10   4   0   0   0   7   0   0   0   0   0   0   0   0   0   0   0   0   0   0   0   0   0   0   0   0   8   0   0   0   6   1 102
   9   0   0  10   0   6   0   0   0   0   0   0   0   0   0   6   0   0  10   0   0   0   6   0   0   0   0   0   0   6   8   1 102
   5   0   0   0   0   3   0   4   0   0   0   0   0   4   0   0   0   0   0   0   0   0   0   0   0   0   0   0   0   0   0   1 102
   4   0   5   0   0   0   0   0   0   0   6   0   0   0   0   0   0   0   0   0   0   9   0   0   0   0   0   0   0   0   0   1 102
   5   0   0   0   0   0   0   0   0   0   0   0   0  10   0   0   0   4   0   0   0   0   0   0   0   0   0   0   0   0   0   1 102
   4  10   7   7   0   0   0   0   0   0   0   0   0   0   0   0   0   0   0   0   0   6   5   0   0   0   0   0   0   0   0   1 102
   9   0   6   0   0   0   0   0   0   0   0   0   0   0   0   0   0   0   0   0   0   0   0   0   0   0   7   0   0   0   0   1 102
   5   0   0   0   7   0   4   0   0   0   0   0   0   0   7   0   0   0   0   0   0   5   5   0   0   0   0   0   0   0   0   1 102
   2   0   0   0   0   7   0   0   0   0   6   0   0   0   0   0   0   0   6   0   0   0   0   3   4   0   0   0   0   0   0   1 102
   6   0   0   4   0   0   0   0   0   0   0   0   0   0   0   0   0   0   9   0   0   8   0   0   0   0   0   0   4   0   0   1 102
   5   0   0   0   0   0  10   0   0   0   0   0   0   0   0   0   0   0   0   0   0   3   0   0   0   0   0   0   0   0   6   1 102
   6   0   0   0   0   0   0   0   0   0   0   0   0   3   9   0   5   0   0   0   0   0   6   0   8   0   0   0   0   0   0   1 102
   4   0   0   0  10   0   0   0   0   0   8   0   0   0   0   0   0   0   0   0   0   0   0   6   0   0   0   0   0   0   0   1 102
   2   0   0   0   0   0   0   0   8   0   0   0   0   0   0   0   0   8   0   0   3   0   0   0   0   0  10   0   0   0   0   1 102
   1   0   0   0   0   0   7   0   0   0   0   0   0   0   0   0   0   0   0   0   0   0   0   4   0   0   0   5   0   6   0   1 102
   3   5   0   0   6   0   0   0   0   0   0   0   0   0   0   0  10   0   0   0   0   6   0   0  10   6   0   6   0   0   0   1 102
   6   0   0   0   0   5   7   0   0   0   0   8   0   0   0   0   0   0   0   0   0   0   0   0   0   0   0   0   0   0   8   1 102
  10   0   0   4   0  10   0   0   0   0   0   0   0   0   0   0   0   0   0   0   0   0   0   0   0   7   0   0   0   0   0   1 102
   1   0   0   0   0   0   0   0   0   0   8   0   0   0   0   0   0   0   0  10   0   0   0   5   0   0   0   0   0   0   0   1 102
  10   0   0   0   0   0   0   7   0   0   0   0   8   0   0   0   0   6   0   1   0   0   0   0   0   0   0   0   0   0   3   1 102
  10   0   0   0   0   0   9   0   0   0   0   0   0   0   0   0   5   0   0   0   0   0   0   0   0   5   0   0   0   0   0   1 102
   0   0   0   0   0   0   0   0   0   0   0   0   0   0   0   0   0   0   0   0   0   0   0   0   0   0   0   0   0   0   0   0 
